; Boogie universal background predicate
; Copyright (c) 2004-2010, Microsoft Corp.
(set-info :category "industrial")
(declare-sort |T@U| 0)
(declare-sort |T@T| 0)
(declare-fun int_div (Int Int) Int)
(declare-fun int_mod (Int Int) Int)
(declare-fun UOrdering2 (|T@U| |T@U|) Bool)
(declare-fun UOrdering3 (|T@T| |T@U| |T@U|) Bool)
(declare-fun tickleBool (Bool) Bool)
(assert (and (tickleBool true) (tickleBool false)))
